nK = 1351;
nT = 4;
nI = 7;
L = 35;
TT = 280;
np = 1;
nc = 3;
b = [68, 29, 60, 51, 65, 42, 23];
d = [117, 99, 150, 143, 140, 67, 37];
m = [1.9, 1.5, 1.8, 1, 1.3, 1.1, 1.5];
pt = [0.35, 0.2, 0.35, 0.31];
st = [16.1, 9.8, 17.85, 12.71];
arc = {<1, 0, 1, 1, 0, 0, 0, [1, 1, 1, 1]>, <2, 1, 2, 1, 0, 0, 0, [1, 1, 1, 1]>, <3, 2, 3, 1, 0, 0, 0, [1, 1, 1, 1]>, <4, 3, 4, 1, 0, 0, 0, [1, 1, 1, 1]>, <5, 4, 5, 1, 0, 0, 0, [1, 1, 1, 1]>, <6, 5, 6, 1, 0, 0, 0, [1, 1, 1, 1]>, <7, 6, 7, 1, 0, 0, 0, [1, 1, 1, 1]>, <8, 7, 8, 1, 0, 0, 0, [1, 1, 1, 1]>, <9, 8, 9, 1, 0, 0, 0, [1, 1, 1, 1]>, <10, 9, 10, 1, 0, 0, 0, [1, 1, 1, 1]>, <11, 10, 11, 1, 0, 0, 0, [1, 1, 1, 1]>, <12, 11, 12, 1, 0, 0, 0, [1, 1, 1, 1]>, <13, 12, 13, 1, 0, 0, 0, [1, 1, 1, 1]>, <14, 13, 14, 1, 0, 0, 0, [1, 1, 1, 1]>, <15, 14, 15, 1, 0, 0, 0, [1, 1, 1, 1]>, <16, 15, 16, 1, 0, 0, 0, [1, 1, 1, 1]>, <17, 16, 17, 1, 0, 0, 0, [1, 1, 1, 1]>, <18, 17, 18, 1, 0, 0, 0, [1, 1, 1, 1]>, <19, 18, 19, 1, 0, 0, 0, [1, 1, 1, 1]>, <20, 19, 20, 1, 0, 0, 0, [1, 1, 1, 1]>, <21, 20, 21, 1, 0, 0, 0, [1, 1, 1, 1]>, <22, 21, 22, 1, 0, 0, 0, [1, 1, 1, 1]>, <23, 22, 23, 1, 0, 0, 0, [1, 1, 1, 1]>, <24, 23, 24, 1, 0, 0, 0, [1, 1, 1, 1]>, <25, 24, 25, 1, 0, 0, 0, [1, 1, 1, 1]>, <26, 25, 26, 1, 0, 0, 0, [1, 1, 1, 1]>, <27, 26, 27, 1, 0, 0, 0, [1, 1, 1, 1]>, <28, 27, 28, 1, 0, 0, 0, [1, 1, 1, 1]>, <29, 28, 29, 1, 0, 0, 0, [1, 1, 1, 1]>, <30, 29, 30, 1, 0, 0, 0, [1, 1, 1, 1]>, <31, 30, 31, 1, 0, 0, 0, [1, 1, 1, 1]>, <32, 31, 32, 1, 0, 0, 0, [1, 1, 1, 1]>, <33, 32, 33, 1, 0, 0, 0, [1, 1, 1, 1]>, <34, 33, 34, 1, 0, 0, 0, [1, 1, 1, 1]>, <35, 34, 35, 1, 0, 0, 0, [1, 1, 1, 1]>, <36, 0, 17, 17, 1, 0, 1, [0, 0, 1, 1]>, <37, 1, 18, 17, 1, 0, 1, [0, 0, 1, 1]>, <38, 2, 19, 17, 1, 0, 1, [0, 0, 1, 1]>, <39, 3, 20, 17, 1, 0, 1, [0, 0, 1, 1]>, <40, 4, 21, 17, 1, 0, 1, [0, 0, 1, 1]>, <41, 5, 22, 17, 1, 0, 1, [0, 0, 1, 1]>, <42, 6, 23, 17, 1, 0, 1, [0, 0, 1, 1]>, <43, 9, 26, 17, 1, 0, 1, [0, 0, 1, 1]>, <44, 10, 27, 17, 1, 0, 1, [0, 0, 1, 1]>, <45, 11, 28, 17, 1, 0, 1, [0, 0, 1, 1]>, <46, 12, 29, 17, 1, 0, 1, [0, 0, 1, 1]>, <47, 13, 30, 17, 1, 0, 1, [0, 0, 1, 1]>, <48, 14, 31, 17, 1, 0, 1, [0, 0, 1, 1]>, <49, 15, 32, 17, 1, 0, 1, [0, 0, 1, 1]>, <50, 16, 33, 17, 1, 0, 1, [0, 0, 1, 1]>, <51, 17, 34, 17, 1, 0, 1, [0, 0, 1, 1]>, <52, 18, 35, 17, 1, 0, 1, [0, 0, 1, 1]>, <53, 0, 18, 18, 2, 0, 0, [0, 0, 1, 1]>, <54, 1, 19, 18, 2, 0, 0, [0, 0, 1, 1]>, <55, 2, 20, 18, 2, 0, 0, [0, 0, 1, 1]>, <56, 3, 21, 18, 2, 0, 0, [0, 0, 1, 1]>, <57, 4, 22, 18, 2, 0, 0, [0, 0, 1, 1]>, <58, 5, 23, 18, 2, 0, 0, [0, 0, 1, 1]>, <59, 6, 24, 18, 2, 0, 0, [0, 0, 1, 1]>, <60, 8, 26, 18, 2, 0, 0, [0, 0, 1, 1]>, <61, 9, 27, 18, 2, 0, 0, [0, 0, 1, 1]>, <62, 10, 28, 18, 2, 0, 0, [0, 0, 1, 1]>, <63, 11, 29, 18, 2, 0, 0, [0, 0, 1, 1]>, <64, 12, 30, 18, 2, 0, 0, [0, 0, 1, 1]>, <65, 13, 31, 18, 2, 0, 0, [0, 0, 1, 1]>, <66, 14, 32, 18, 2, 0, 0, [0, 0, 1, 1]>, <67, 15, 33, 18, 2, 0, 0, [0, 0, 1, 1]>, <68, 16, 34, 18, 2, 0, 0, [0, 0, 1, 1]>, <69, 17, 35, 18, 2, 0, 0, [0, 0, 1, 1]>, <70, 2, 17, 15, 3, 0, 1, [0, 1, 1, 0]>, <71, 3, 18, 15, 3, 0, 1, [0, 1, 1, 0]>, <72, 4, 19, 15, 3, 0, 1, [0, 1, 1, 0]>, <73, 5, 20, 15, 3, 0, 1, [0, 1, 1, 0]>, <74, 6, 21, 15, 3, 0, 1, [0, 1, 1, 0]>, <75, 11, 26, 15, 3, 0, 1, [0, 1, 1, 0]>, <76, 12, 27, 15, 3, 0, 1, [0, 1, 1, 0]>, <77, 13, 28, 15, 3, 0, 1, [0, 1, 1, 0]>, <78, 14, 29, 15, 3, 0, 1, [0, 1, 1, 0]>, <79, 15, 30, 15, 3, 0, 1, [0, 1, 1, 0]>, <80, 16, 31, 15, 3, 0, 1, [0, 1, 1, 0]>, <81, 17, 32, 15, 3, 0, 1, [0, 1, 1, 0]>, <82, 18, 33, 15, 3, 0, 1, [0, 1, 1, 0]>, <83, 19, 34, 15, 3, 0, 1, [0, 1, 1, 0]>, <84, 20, 35, 15, 3, 0, 1, [0, 1, 1, 0]>, <85, 1, 17, 16, 4, 1, 0, [0, 0, 1, 1]>, <86, 2, 18, 16, 4, 1, 0, [0, 0, 1, 1]>, <87, 3, 19, 16, 4, 1, 0, [0, 0, 1, 1]>, <88, 4, 20, 16, 4, 1, 0, [0, 0, 1, 1]>, <89, 5, 21, 16, 4, 1, 0, [0, 0, 1, 1]>, <90, 6, 22, 16, 4, 1, 0, [0, 0, 1, 1]>, <91, 10, 26, 16, 4, 1, 0, [0, 0, 1, 1]>, <92, 11, 27, 16, 4, 1, 0, [0, 0, 1, 1]>, <93, 12, 28, 16, 4, 1, 0, [0, 0, 1, 1]>, <94, 13, 29, 16, 4, 1, 0, [0, 0, 1, 1]>, <95, 14, 30, 16, 4, 1, 0, [0, 0, 1, 1]>, <96, 15, 31, 16, 4, 1, 0, [0, 0, 1, 1]>, <97, 16, 32, 16, 4, 1, 0, [0, 0, 1, 1]>, <98, 17, 33, 16, 4, 1, 0, [0, 0, 1, 1]>, <99, 18, 34, 16, 4, 1, 0, [0, 0, 1, 1]>, <100, 19, 35, 16, 4, 1, 0, [0, 0, 1, 1]>, <101, 3, 17, 14, 5, 0, 1, [1, 1, 0, 0]>, <102, 4, 18, 14, 5, 0, 1, [1, 1, 0, 0]>, <103, 5, 19, 14, 5, 0, 1, [1, 1, 0, 0]>, <104, 6, 20, 14, 5, 0, 1, [1, 1, 0, 0]>, <105, 12, 26, 14, 5, 0, 1, [1, 1, 0, 0]>, <106, 13, 27, 14, 5, 0, 1, [1, 1, 0, 0]>, <107, 14, 28, 14, 5, 0, 1, [1, 1, 0, 0]>, <108, 15, 29, 14, 5, 0, 1, [1, 1, 0, 0]>, <109, 17, 31, 14, 5, 0, 1, [1, 1, 0, 0]>, <110, 18, 32, 14, 5, 0, 1, [1, 1, 0, 0]>, <111, 19, 33, 14, 5, 0, 1, [1, 1, 0, 0]>, <112, 20, 34, 14, 5, 0, 1, [1, 1, 0, 0]>, <113, 21, 35, 14, 5, 0, 1, [1, 1, 0, 0]>, <114, 0, 17, 17, 6, 0, 1, [1, 0, 0, 1]>, <115, 1, 18, 17, 6, 0, 1, [1, 0, 0, 1]>, <116, 2, 19, 17, 6, 0, 1, [1, 0, 0, 1]>, <117, 3, 20, 17, 6, 0, 1, [1, 0, 0, 1]>, <118, 4, 21, 17, 6, 0, 1, [1, 0, 0, 1]>, <119, 5, 22, 17, 6, 0, 1, [1, 0, 0, 1]>, <120, 6, 23, 17, 6, 0, 1, [1, 0, 0, 1]>, <121, 9, 26, 17, 6, 0, 1, [1, 0, 0, 1]>, <122, 10, 27, 17, 6, 0, 1, [1, 0, 0, 1]>, <123, 11, 28, 17, 6, 0, 1, [1, 0, 0, 1]>, <124, 12, 29, 17, 6, 0, 1, [1, 0, 0, 1]>, <125, 13, 30, 17, 6, 0, 1, [1, 0, 0, 1]>, <126, 14, 31, 17, 6, 0, 1, [1, 0, 0, 1]>, <127, 15, 32, 17, 6, 0, 1, [1, 0, 0, 1]>, <128, 16, 33, 17, 6, 0, 1, [1, 0, 0, 1]>, <129, 17, 34, 17, 6, 0, 1, [1, 0, 0, 1]>, <130, 18, 35, 17, 6, 0, 1, [1, 0, 0, 1]>, <131, 2, 17, 15, 7, 0, 1, [0, 0, 1, 1]>, <132, 3, 18, 15, 7, 0, 1, [0, 0, 1, 1]>, <133, 4, 19, 15, 7, 0, 1, [0, 0, 1, 1]>, <134, 5, 20, 15, 7, 0, 1, [0, 0, 1, 1]>, <135, 6, 21, 15, 7, 0, 1, [0, 0, 1, 1]>, <136, 11, 26, 15, 7, 0, 1, [0, 0, 1, 1]>, <137, 12, 27, 15, 7, 0, 1, [0, 0, 1, 1]>, <138, 13, 28, 15, 7, 0, 1, [0, 0, 1, 1]>, <139, 14, 29, 15, 7, 0, 1, [0, 0, 1, 1]>, <140, 15, 30, 15, 7, 0, 1, [0, 0, 1, 1]>, <141, 16, 31, 15, 7, 0, 1, [0, 0, 1, 1]>, <142, 17, 32, 15, 7, 0, 1, [0, 0, 1, 1]>, <143, 18, 33, 15, 7, 0, 1, [0, 0, 1, 1]>, <144, 19, 34, 15, 7, 0, 1, [0, 0, 1, 1]>, <145, 20, 35, 15, 7, 0, 1, [0, 0, 1, 1]>};
